TCS_Benchmarks/redos_fix/corpus3_output_distinct_732_731_16_0.smt2
(set-logic QF_S)
(declare-const x String)
(assert (str.in.re x (re.inter  (re.++ (re.* (re.union (re.range "\u{00}" "\u{09}") (re.range "\u{0b}" "\u{0c}") (re.range "\u{0e}" "\u{84}") (re.range "\u{86}" "\u{ff}")) ) (re.+  (re.union (re.range "\u{31}" "\u{39}") (re.union  (str.to.re "\u{2d}")  (str.to.re "\u{6e}"))) ))  (re.++ (re.* (re.union (re.range "\u{00}" "\u{09}") (re.range "\u{0b}" "\u{0c}") (re.range "\u{0e}" "\u{84}") (re.range "\u{86}" "\u{ff}")) ) (re.++  (re.++  (str.to.re "\u{20}") (re.++ (re.+  (re.union  (str.to.re "\u{53}") (re.union  (str.to.re "\u{2f}")  (str.to.re "\u{55}"))) )  (str.to.re "\u{20}"))) (re.+  (re.union (re.range "\u{31}" "\u{39}") (re.union  (str.to.re "\u{2d}")  (str.to.re "\u{6e}"))) ))) )))
(check-sat)
(get-model)