TCS_Benchmarks/redos_fix/corpus3_output_distinct_732_731_16_0.txt
(.*)([1-9\-n]+)
(.*)( ([S\/U]+) )([1-9\-n]+)